85157621 -1 0
42323805 2 0
28911663 -3 0
146585685 4 0
79468722 3 0
142506248 -3 0
160352130 -1 0
142305062 3 0
70673459 -4 0
70915983 -5 0
68154007 -6 0
206994141 -4 0
60912643 -7 0
82740518 -4 0
141001073 7 0
168785387 -3 0
51335059 4 0
219919783 -4 0
174237554 -2 0
64316678 -4 0
76090319 1 0
96217462 3 0
189579157 -2 0
241545814 4 0
233409991 7 0
139510768 7 0
58677695 -3 0
133813799 4 0
142963008 4 0
78922072 -5 0
34941078 -8 0
110286291 -4 0
196993711 -6 0
156176572 6 0
237852391 -7 0
194299760 3 0
